c This is an instance of the exact track of PACE 2020 Challenge, see https://pacechallenge.org/2020/ 
c TYPE: generated 
c ORIGIN: Python networkx package 
c DESCRIPTION: A random cubic graph generated using random_regular_graph function from Python’s networkx package 
p tdp 90 135
1 2
1 3
1 7
2 37
2 80
3 4
3 22
4 44
4 62
5 6
5 46
5 34
6 36
6 82
7 8
7 53
8 20
8 11
9 10
9 81
9 49
10 39
10 51
11 12
11 62
12 38
12 89
13 14
13 56
13 45
14 31
14 29
15 16
15 36
15 48
16 17
16 47
17 37
17 42
18 19
18 21
18 24
19 35
19 68
20 42
20 87
21 41
21 48
22 33
22 90
23 24
23 47
23 82
24 75
25 26
25 71
25 56
26 32
26 41
27 28
27 57
27 65
28 79
28 54
29 30
29 55
30 74
30 73
31 57
31 76
32 39
32 40
33 58
33 78
34 35
34 50
35 43
36 72
37 80
38 55
38 43
39 40
40 57
41 70
42 43
44 45
44 90
45 69
46 65
46 60
47 58
48 70
49 50
49 73
50 81
51 52
51 90
52 86
52 53
53 54
54 77
55 79
56 79
58 66
59 60
59 71
59 88
60 87
61 62
61 67
61 85
63 64
63 70
63 86
64 87
64 78
65 84
66 84
66 75
67 83
67 80
68 69
68 81
69 76
71 83
72 78
72 82
73 74
74 76
75 77
77 89
83 88
84 88
85 86
85 89
